945425
23 25 11530
25 34 30137
34 33 36786
33 12 3967
12 5 38538
5 32 3290
32 26 29397
26 39 17497
39 31 9087
31 30 10287
30 37 941
37 20 17449
20 24 65657
24 22 45980
22 4 23621
4 19 26533
19 40 13572
40 18 18404
18 27 12606
27 2 15288
2 16 57771
16 3 71701
3 14 30026
14 17 42391
17 15 45489
15 8 26227
8 9 54349
9 6 47658
6 1 25297
1 11 8732
11 35 5412
35 10 6355
10 21 5744
21 7 17005
7 36 11794
36 13 26785
13 28 6411
28 29 17517
29 38 745
38 23 7449
